Route #1: 126 78 2 93 17 116 115 136 4 109 97 120 19 7 32 16 36 25 118 128 84 68 13
Route #2: 124 70 40 59 135 58 48 87 1 111 60 79 98 31 6 102 72 114 43 8 107 5 86 41
Route #3: 110 53 67 101 66 57 95 139 55 142 83 56 91 35 85 28 133 90 61 45 89
Route #4: 54 65 18 47 96 33 125 123 137 82 21 23 132 104 62 81 74 100 11 44 64 12
Route #5: 46 30 121 34 138 105 129 76 3 94 75 26 113 10 63 103 38 134 92 108 117
Route #6: 52 20 99 24 106 27 15 112 140 141 131 69 39 42 29 80 119 22 122 37 14 77
Route #7: 127 50 49 51 73 88 71 9 130
Cost 17908
